c A SAT instance generated from a 3-CNF formula that had 36 clauses and 12 variables
p cnf 12 36
-9 11 5 0
-11 -4 -12 0
-7 -4 -5 0
12 1 8 0
10 5 -9 0
-11 -5 9 0
-5 -3 -12 0
-3 6 -5 0
-5 8 -9 0
8 3 -1 0
3 6 11 0
-4 -2 -3 0
6 8 9 0
11 2 10 0
9 -6 -10 0
9 11 2 0
11 -2 -6 0
3 11 1 0
-12 -10 5 0
5 11 -4 0
-11 2 12 0
-10 11 6 0
-3 2 -7 0
2 -11 8 0
-10 7 -11 0
-10 12 6 0
3 2 -6 0
-12 6 -3 0
1 -11 -3 0
1 11 -5 0
1 -9 -6 0
10 -8 3 0
-2 -3 4 0
12 -2 -11 0
5 1 -4 0
3 1 6 0
